solving instance mcnd nodes c25_100_10_F_L_5 3 6 sqrt
Couenne 0.5.8 -- an Open-Source solver for Mixed Integer Nonlinear Optimization
Mailing list: couenne@list.coin-or.org
Instructions: http://www.coin-or.org/Couenne
couenne: 
ANALYSIS TEST: Reformulating problem: 0.3 seconds
NLP0012I 
              Num      Status      Obj             It       time                 Location
NLP0014I             1      FAILED 12433.109      307 36.153463
NLP0014I             1      FAILED 12433.109      307 36.155002   resolve robustness
NLP3006W Warning : continuing branching, while there are unrecovered failures at nodes
Loaded instance "/tmp/jl_b1difR/model.nl"
Constraints:         1625
Variables:           1275 (125 integer)
Auxiliaries:         1161 (0 integer)

Coin0506I Presolve 1725 (-76) rows, 1250 (-1186) columns and 7725 (-1376) elements
Clp0006I 0  Obj 5.448e-05 Primal inf 74.468311 (20)
Clp0006I 109  Obj 559.59203 Primal inf 11174.525 (94)
Clp0006I 218  Obj 2446.5413 Primal inf 32873.103 (158)
Clp0006I 327  Obj 6113.262 Primal inf 248129.86 (182)
Clp0006I 436  Obj 8486.4342 Primal inf 107627.77 (255)
Clp0006I 545  Obj 9829.0303 Primal inf 5719988.4 (327)
Clp0006I 646  Obj 10427.735 Primal inf 372363.96 (350)
Clp0006I 740  Obj 10921.215 Primal inf 258698.7 (182)
Clp0006I 828  Obj 11217.141 Primal inf 116628.22 (196)
Clp0006I 912  Obj 11383.395 Primal inf 2112.1845 (135)
Clp0006I 998  Obj 11475.772 Primal inf 4933.3999 (102)
Clp0006I 1084  Obj 11521.808 Primal inf 2881.9139 (20)
Clp0006I 1091  Obj 11522.57
Clp0000I Optimal - objective value 11522.57
Clp0032I Optimal objective 11522.56988 - 1091 iterations time 0.172, Presolve 0.01
Clp0000I Optimal - objective value 11522.57
NLP Heuristic: NLP0014I             3      INFEAS 6       54 1.65008
no solution.
Clp0000I Optimal - objective value 11522.57
Optimality Based BT: 0 improved bounds
Probing: 1 improved bounds
NLP Heuristic: no solution.
Cbc0031I 1 added rows had average density of 2
Cbc0013I At root node, 1 cuts changed objective from 11522.57 to 11552.185 in 2 passes
Cbc0014I Cut generator 0 (Couenne convexifier cuts) - 1 row cuts average 2.0 elements, 1 column cuts (1 active)
Cbc0010I After 0 nodes, 1 on tree, 1e+50 best solution, best possible -1.7976931e+308 (96.06 seconds)
Optimality Based BT: 0 improved bounds
Optimality Based BT: 0 improved bounds
Optimality Based BT: 0 improved bounds
Optimality Based BT: 0 improved bounds
Optimality Based BT: 0 improved bounds
Optimality Based BT: 0 improved bounds
Cbc0010I After 100 nodes, 49 on tree, 1e+50 best solution, best possible 11630.995 (776.80 seconds)
Cbc0010I After 200 nodes, 98 on tree, 1e+50 best solution, best possible 11630.995 (784.80 seconds)
Cbc0010I After 300 nodes, 148 on tree, 1e+50 best solution, best possible 11630.995 (793.87 seconds)
Cbc0010I After 400 nodes, 198 on tree, 1e+50 best solution, best possible 11630.995 (802.45 seconds)
Cbc0010I After 500 nodes, 247 on tree, 1e+50 best solution, best possible 11630.995 (810.77 seconds)
Cbc0010I After 600 nodes, 292 on tree, 1e+50 best solution, best possible 11630.995 (816.35 seconds)
Optimality Based BT: 0 improved bounds
Optimality Based BT: 0 improved bounds
Cbc0010I After 700 nodes, 334 on tree, 1e+50 best solution, best possible 11865.564 (1197.50 seconds)
Cbc0010I After 800 nodes, 379 on tree, 1e+50 best solution, best possible 11865.564 (1203.01 seconds)
Cbc0010I After 900 nodes, 420 on tree, 1e+50 best solution, best possible 11865.564 (1207.90 seconds)
Cbc0010I After 1000 nodes, 462 on tree, 1e+50 best solution, best possible 11865.564 (1212.20 seconds)
Cbc0010I After 1100 nodes, 502 on tree, 1e+50 best solution, best possible 11865.564 (1216.21 seconds)
Cbc0010I After 1200 nodes, 544 on tree, 1e+50 best solution, best possible 11865.564 (1220.49 seconds)
Optimality Based BT: 0 improved bounds
Optimality Based BT: 0 improved bounds
Optimality Based BT: 0 improved bounds
Cbc0010I After 1300 nodes, 587 on tree, 1e+50 best solution, best possible 11898.347 (1517.68 seconds)
Cbc0010I After 1400 nodes, 623 on tree, 1e+50 best solution, best possible 11898.347 (1523.41 seconds)
Cbc0010I After 1500 nodes, 671 on tree, 1e+50 best solution, best possible 11898.347 (1529.45 seconds)
Cbc0010I After 1600 nodes, 714 on tree, 1e+50 best solution, best possible 11898.347 (1534.27 seconds)
Cbc0010I After 1700 nodes, 762 on tree, 1e+50 best solution, best possible 11898.347 (1538.59 seconds)
Cbc0010I After 1800 nodes, 809 on tree, 1e+50 best solution, best possible 11898.347 (1543.45 seconds)
Cbc0010I After 1900 nodes, 854 on tree, 1e+50 best solution, best possible 11898.347 (1548.92 seconds)
Cbc0010I After 2000 nodes, 892 on tree, 1e+50 best solution, best possible 11898.347 (1553.44 seconds)
Optimality Based BT: 0 improved bounds
Optimality Based BT: 0 improved bounds
Cbc0010I After 2100 nodes, 933 on tree, 1e+50 best solution, best possible 11928.394 (1735.19 seconds)
Cbc0010I After 2200 nodes, 977 on tree, 1e+50 best solution, best possible 11928.394 (1741.68 seconds)
Cbc0010I After 2300 nodes, 1025 on tree, 1e+50 best solution, best possible 11928.394 (1748.09 seconds)
Cbc0010I After 2400 nodes, 1075 on tree, 1e+50 best solution, best possible 11928.394 (1753.55 seconds)
Cbc0010I After 2500 nodes, 1125 on tree, 1e+50 best solution, best possible 11928.394 (1758.82 seconds)
Cbc0010I After 2600 nodes, 1175 on tree, 1e+50 best solution, best possible 11928.394 (1764.73 seconds)
Optimality Based BT: 0 improved bounds
Cbc0010I After 2700 nodes, 1216 on tree, 1e+50 best solution, best possible 11950.618 (1934.29 seconds)
Cbc0010I After 2800 nodes, 1257 on tree, 1e+50 best solution, best possible 11950.618 (1939.06 seconds)
Cbc0010I After 2900 nodes, 1286 on tree, 1e+50 best solution, best possible 11950.618 (1943.67 seconds)
Cbc0010I After 3000 nodes, 1327 on tree, 1e+50 best solution, best possible 11950.618 (1947.70 seconds)
Cbc0010I After 3100 nodes, 1357 on tree, 1e+50 best solution, best possible 11950.618 (1951.21 seconds)
Cbc0010I After 3200 nodes, 1390 on tree, 1e+50 best solution, best possible 11950.618 (1954.48 seconds)
Cbc0010I After 3300 nodes, 1425 on tree, 1e+50 best solution, best possible 11950.618 (1957.74 seconds)
Optimality Based BT: 0 improved bounds
Cbc0010I After 3400 nodes, 1459 on tree, 1e+50 best solution, best possible 12041.95 (2049.43 seconds)
Cbc0010I After 3500 nodes, 1509 on tree, 1e+50 best solution, best possible 12041.95 (2059.35 seconds)
Cbc0010I After 3600 nodes, 1557 on tree, 1e+50 best solution, best possible 12041.95 (2067.09 seconds)
Cbc0010I After 3700 nodes, 1607 on tree, 1e+50 best solution, best possible 12041.95 (2073.49 seconds)
Cbc0010I After 3800 nodes, 1654 on tree, 1e+50 best solution, best possible 12041.95 (2078.98 seconds)
Cbc0010I After 3900 nodes, 1701 on tree, 1e+50 best solution, best possible 12041.95 (2084.10 seconds)
Cbc0010I After 4000 nodes, 1746 on tree, 1e+50 best solution, best possible 12041.95 (2089.42 seconds)
Cbc0010I After 4100 nodes, 1792 on tree, 1e+50 best solution, best possible 12041.95 (2094.62 seconds)
Cbc0010I After 4200 nodes, 1830 on tree, 1e+50 best solution, best possible 12098.874 (2206.25 seconds)
Cbc0010I After 4300 nodes, 1871 on tree, 1e+50 best solution, best possible 12098.874 (2211.81 seconds)
Cbc0010I After 4400 nodes, 1914 on tree, 1e+50 best solution, best possible 12098.874 (2216.99 seconds)
Cbc0010I After 4500 nodes, 1955 on tree, 1e+50 best solution, best possible 12098.874 (2221.71 seconds)
Cbc0010I After 4600 nodes, 2001 on tree, 1e+50 best solution, best possible 12098.874 (2226.70 seconds)
Cbc0010I After 4700 nodes, 2042 on tree, 1e+50 best solution, best possible 12098.874 (2232.17 seconds)
Cbc0010I After 4800 nodes, 2087 on tree, 1e+50 best solution, best possible 12098.874 (2237.81 seconds)
Cbc0010I After 4900 nodes, 2112 on tree, 1e+50 best solution, best possible 12098.874 (2243.66 seconds)
Cbc0010I After 5000 nodes, 2154 on tree, 1e+50 best solution, best possible 12098.874 (2248.94 seconds)
Cbc0010I After 5100 nodes, 2195 on tree, 1e+50 best solution, best possible 12149.587 (2263.17 seconds)
Cbc0010I After 5200 nodes, 2236 on tree, 1e+50 best solution, best possible 12149.587 (2268.52 seconds)
Cbc0010I After 5300 nodes, 2280 on tree, 1e+50 best solution, best possible 12149.587 (2273.22 seconds)
Cbc0010I After 5400 nodes, 2323 on tree, 1e+50 best solution, best possible 12149.587 (2277.53 seconds)
Cbc0010I After 5500 nodes, 2368 on tree, 1e+50 best solution, best possible 12149.587 (2281.49 seconds)
Cbc0010I After 5600 nodes, 2410 on tree, 1e+50 best solution, best possible 12149.587 (2285.50 seconds)
Cbc0010I After 5700 nodes, 2454 on tree, 1e+50 best solution, best possible 12149.587 (2289.71 seconds)
Cbc0010I After 5800 nodes, 2500 on tree, 1e+50 best solution, best possible 12149.587 (2294.92 seconds)
Cbc0010I After 5900 nodes, 2542 on tree, 1e+50 best solution, best possible 12251.59 (2361.98 seconds)
Cbc0010I After 6000 nodes, 2584 on tree, 1e+50 best solution, best possible 12251.59 (2367.35 seconds)
Cbc0010I After 6100 nodes, 2630 on tree, 1e+50 best solution, best possible 12251.59 (2372.59 seconds)
Cbc0010I After 6200 nodes, 2680 on tree, 1e+50 best solution, best possible 12251.59 (2377.22 seconds)
Cbc0010I After 6300 nodes, 2730 on tree, 1e+50 best solution, best possible 12251.59 (2380.96 seconds)
Cbc0010I After 6400 nodes, 2780 on tree, 1e+50 best solution, best possible 12251.59 (2384.49 seconds)
Cbc0010I After 6500 nodes, 2830 on tree, 1e+50 best solution, best possible 12251.59 (2388.21 seconds)
Cbc0010I After 6600 nodes, 2875 on tree, 1e+50 best solution, best possible 12251.59 (2393.21 seconds)
Cbc0010I After 6700 nodes, 2916 on tree, 1e+50 best solution, best possible 12251.59 (2397.67 seconds)
Cbc0010I After 6800 nodes, 2947 on tree, 1e+50 best solution, best possible 12253.309 (2405.43 seconds)
Cbc0010I After 6900 nodes, 2991 on tree, 1e+50 best solution, best possible 12253.309 (2412.34 seconds)
Cbc0010I After 7000 nodes, 3028 on tree, 1e+50 best solution, best possible 12253.309 (2417.15 seconds)
Cbc0010I After 7100 nodes, 3066 on tree, 1e+50 best solution, best possible 12253.309 (2421.77 seconds)
Cbc0010I After 7200 nodes, 3105 on tree, 1e+50 best solution, best possible 12253.309 (2425.71 seconds)
Cbc0010I After 7300 nodes, 3142 on tree, 1e+50 best solution, best possible 12253.309 (2429.88 seconds)
Cbc0010I After 7400 nodes, 3182 on tree, 1e+50 best solution, best possible 12253.309 (2434.45 seconds)
Cbc0010I After 7500 nodes, 3220 on tree, 1e+50 best solution, best possible 12253.309 (2439.56 seconds)
Cbc0010I After 7600 nodes, 3263 on tree, 1e+50 best solution, best possible 12253.309 (2443.88 seconds)
Cbc0010I After 7700 nodes, 3303 on tree, 1e+50 best solution, best possible 12272.49 (2537.86 seconds)
Cbc0010I After 7800 nodes, 3346 on tree, 1e+50 best solution, best possible 12272.49 (2543.42 seconds)
Cbc0010I After 7900 nodes, 3382 on tree, 1e+50 best solution, best possible 12272.49 (2548.80 seconds)
Cbc0010I After 8000 nodes, 3425 on tree, 1e+50 best solution, best possible 12272.49 (2553.48 seconds)
Cbc0010I After 8100 nodes, 3464 on tree, 1e+50 best solution, best possible 12272.49 (2558.69 seconds)
Cbc0010I After 8200 nodes, 3509 on tree, 1e+50 best solution, best possible 12272.49 (2564.01 seconds)
Cbc0010I After 8300 nodes, 3550 on tree, 1e+50 best solution, best possible 12283.961 (2572.65 seconds)
Cbc0010I After 8400 nodes, 3588 on tree, 1e+50 best solution, best possible 12283.961 (2577.36 seconds)
Cbc0010I After 8500 nodes, 3624 on tree, 1e+50 best solution, best possible 12283.961 (2582.28 seconds)
Cbc0010I After 8600 nodes, 3661 on tree, 1e+50 best solution, best possible 12283.961 (2586.74 seconds)
Cbc0010I After 8700 nodes, 3695 on tree, 1e+50 best solution, best possible 12283.961 (2590.51 seconds)
Cbc0010I After 8800 nodes, 3733 on tree, 1e+50 best solution, best possible 12283.961 (2594.20 seconds)
Cbc0010I After 8900 nodes, 3770 on tree, 1e+50 best solution, best possible 12283.961 (2598.26 seconds)
Optimality Based BT: 0 improved bounds
Optimality Based BT: 0 improved bounds
Cbc0010I After 9000 nodes, 3810 on tree, 1e+50 best solution, best possible 12299.455 (2676.65 seconds)
Cbc0010I After 9100 nodes, 3853 on tree, 1e+50 best solution, best possible 12299.455 (2687.17 seconds)
Cbc0010I After 9200 nodes, 3892 on tree, 1e+50 best solution, best possible 12299.455 (2692.39 seconds)
Cbc0010I After 9300 nodes, 3941 on tree, 1e+50 best solution, best possible 12299.455 (2697.15 seconds)
Cbc0010I After 9400 nodes, 3990 on tree, 1e+50 best solution, best possible 12299.455 (2701.26 seconds)
Cbc0010I After 9500 nodes, 4038 on tree, 1e+50 best solution, best possible 12299.455 (2704.94 seconds)
Cbc0010I After 9600 nodes, 4088 on tree, 1e+50 best solution, best possible 12299.455 (2708.95 seconds)
Cbc0010I After 9700 nodes, 4138 on tree, 1e+50 best solution, best possible 12299.455 (2713.02 seconds)
Optimality Based BT: 0 improved bounds
Cbc0010I After 9800 nodes, 4186 on tree, 1e+50 best solution, best possible 12359.873 (2763.84 seconds)
Cbc0010I After 9900 nodes, 4231 on tree, 1e+50 best solution, best possible 12359.873 (2770.18 seconds)
Cbc0010I After 10000 nodes, 4264 on tree, 1e+50 best solution, best possible 12359.873 (2774.77 seconds)
Cbc0010I After 10100 nodes, 4296 on tree, 1e+50 best solution, best possible 12359.873 (2830.73 seconds)
Cbc0010I After 10200 nodes, 4333 on tree, 1e+50 best solution, best possible 12359.873 (2834.19 seconds)
Cbc0010I After 10300 nodes, 4363 on tree, 1e+50 best solution, best possible 12359.873 (2837.26 seconds)
Cbc0010I After 10400 nodes, 4393 on tree, 1e+50 best solution, best possible 12359.873 (2840.45 seconds)
Cbc0010I After 10500 nodes, 4425 on tree, 1e+50 best solution, best possible 12359.873 (2843.76 seconds)
Cbc0010I After 10600 nodes, 4456 on tree, 1e+50 best solution, best possible 12359.873 (2847.11 seconds)
Cbc0010I After 10700 nodes, 4497 on tree, 1e+50 best solution, best possible 12359.873 (2850.55 seconds)
Cbc0004I Integer solution of 24121.811 found after 651444 iterations and 10789 nodes (2853.58 seconds)
Cbc0010I After 10800 nodes, 4389 on tree, 24121.811 best solution, best possible 12363.923 (2855.42 seconds)
Cbc0010I After 10900 nodes, 4431 on tree, 24121.811 best solution, best possible 12363.923 (2862.10 seconds)
Cbc0010I After 11000 nodes, 4461 on tree, 24121.811 best solution, best possible 12363.923 (2866.96 seconds)
Cbc0010I After 11100 nodes, 4496 on tree, 24121.811 best solution, best possible 12363.923 (2870.99 seconds)
Cbc0010I After 11200 nodes, 4526 on tree, 24121.811 best solution, best possible 12363.923 (2874.22 seconds)
Cbc0010I After 11300 nodes, 4562 on tree, 24121.811 best solution, best possible 12363.923 (2877.72 seconds)
Cbc0010I After 11400 nodes, 4594 on tree, 24121.811 best solution, best possible 12363.923 (2881.97 seconds)
Cbc0010I After 11500 nodes, 4624 on tree, 24121.811 best solution, best possible 12363.923 (2887.13 seconds)
Cbc0010I After 11600 nodes, 4656 on tree, 24121.811 best solution, best possible 12363.923 (2893.69 seconds)
Cbc0010I After 11700 nodes, 4699 on tree, 24121.811 best solution, best possible 12378.236 (2904.07 seconds)
Cbc0010I After 11800 nodes, 4742 on tree, 24121.811 best solution, best possible 12378.236 (2909.68 seconds)
Cbc0010I After 11900 nodes, 4782 on tree, 24121.811 best solution, best possible 12378.236 (2914.77 seconds)
Cbc0010I After 12000 nodes, 4826 on tree, 24121.811 best solution, best possible 12378.236 (2919.07 seconds)
Cbc0010I After 12100 nodes, 4869 on tree, 24121.811 best solution, best possible 12378.236 (2923.23 seconds)
Cbc0010I After 12200 nodes, 4909 on tree, 24121.811 best solution, best possible 12378.236 (2927.80 seconds)
Cbc0010I After 12300 nodes, 4952 on tree, 24121.811 best solution, best possible 12378.236 (2932.48 seconds)
Cbc0010I After 12400 nodes, 4996 on tree, 24121.811 best solution, best possible 12380.385 (2944.78 seconds)
Cbc0010I After 12500 nodes, 5042 on tree, 24121.811 best solution, best possible 12380.385 (2950.89 seconds)
Cbc0010I After 12600 nodes, 5089 on tree, 24121.811 best solution, best possible 12380.385 (2956.15 seconds)
Cbc0010I After 12700 nodes, 5137 on tree, 24121.811 best solution, best possible 12380.385 (2960.90 seconds)
Cbc0010I After 12800 nodes, 5181 on tree, 24121.811 best solution, best possible 12380.385 (2966.17 seconds)
Cbc0010I After 12900 nodes, 5228 on tree, 24121.811 best solution, best possible 12380.385 (2971.25 seconds)
Cbc0010I After 13000 nodes, 5251 on tree, 24121.811 best solution, best possible 12380.385 (2976.18 seconds)
Cbc0010I After 13100 nodes, 5293 on tree, 24121.811 best solution, best possible 12381.594 (2988.96 seconds)
Cbc0010I After 13200 nodes, 5339 on tree, 24121.811 best solution, best possible 12381.594 (2994.28 seconds)
Cbc0010I After 13300 nodes, 5373 on tree, 24121.811 best solution, best possible 12381.594 (2999.15 seconds)
Cbc0010I After 13400 nodes, 5411 on tree, 24121.811 best solution, best possible 12381.594 (3003.32 seconds)
Cbc0010I After 13500 nodes, 5449 on tree, 24121.811 best solution, best possible 12381.594 (3006.98 seconds)
Cbc0010I After 13600 nodes, 5487 on tree, 24121.811 best solution, best possible 12381.594 (3010.66 seconds)
Cbc0010I After 13700 nodes, 5523 on tree, 24121.811 best solution, best possible 12381.594 (3014.98 seconds)
Cbc0010I After 13800 nodes, 5553 on tree, 24121.811 best solution, best possible 12381.594 (3019.20 seconds)
Cbc0010I After 13900 nodes, 5584 on tree, 24121.811 best solution, best possible 12381.594 (3023.82 seconds)
Cbc0010I After 14000 nodes, 5614 on tree, 24121.811 best solution, best possible 12383.097 (3136.57 seconds)
Cbc0010I After 14100 nodes, 5658 on tree, 24121.811 best solution, best possible 12383.097 (3142.65 seconds)
Cbc0010I After 14200 nodes, 5701 on tree, 24121.811 best solution, best possible 12383.097 (3148.22 seconds)
Cbc0010I After 14300 nodes, 5746 on tree, 24121.811 best solution, best possible 12383.097 (3153.61 seconds)
Cbc0010I After 14400 nodes, 5792 on tree, 24121.811 best solution, best possible 12383.097 (3158.57 seconds)
Cbc0010I After 14500 nodes, 5837 on tree, 24121.811 best solution, best possible 12383.097 (3163.19 seconds)
Cbc0010I After 14600 nodes, 5877 on tree, 24121.811 best solution, best possible 12383.097 (3168.46 seconds)
Cbc0010I After 14700 nodes, 5920 on tree, 24121.811 best solution, best possible 12383.097 (3174.34 seconds)
Cbc0010I After 14800 nodes, 5949 on tree, 24121.811 best solution, best possible 12383.097 (3179.17 seconds)
Cbc0010I After 14900 nodes, 5981 on tree, 24121.811 best solution, best possible 12390.212 (3187.47 seconds)
Cbc0010I After 15000 nodes, 6021 on tree, 24121.811 best solution, best possible 12390.212 (3192.99 seconds)
Cbc0010I After 15100 nodes, 6070 on tree, 24121.811 best solution, best possible 12390.212 (3198.08 seconds)
Cbc0010I After 15200 nodes, 6120 on tree, 24121.811 best solution, best possible 12390.212 (3201.93 seconds)
Cbc0010I After 15300 nodes, 6169 on tree, 24121.811 best solution, best possible 12390.212 (3205.97 seconds)
Cbc0010I After 15400 nodes, 6211 on tree, 24121.811 best solution, best possible 12392.021 (3214.10 seconds)
Cbc0010I After 15500 nodes, 6255 on tree, 24121.811 best solution, best possible 12392.021 (3219.58 seconds)
Cbc0010I After 15600 nodes, 6298 on tree, 24121.811 best solution, best possible 12392.021 (3224.66 seconds)
Cbc0010I After 15700 nodes, 6348 on tree, 24121.811 best solution, best possible 12392.021 (3228.94 seconds)
Cbc0010I After 15800 nodes, 6396 on tree, 24121.811 best solution, best possible 12392.021 (3232.89 seconds)
Cbc0010I After 15900 nodes, 6444 on tree, 24121.811 best solution, best possible 12392.021 (3236.94 seconds)
Optimality Based BT: 0 improved bounds
Cbc0010I After 16000 nodes, 6490 on tree, 24121.811 best solution, best possible 12395.162 (3282.71 seconds)
Cbc0010I After 16100 nodes, 6535 on tree, 24121.811 best solution, best possible 12395.162 (3288.70 seconds)
Cbc0010I After 16200 nodes, 6578 on tree, 24121.811 best solution, best possible 12395.162 (3294.32 seconds)
Cbc0010I After 16300 nodes, 6627 on tree, 24121.811 best solution, best possible 12395.162 (3298.96 seconds)
Cbc0010I After 16400 nodes, 6674 on tree, 24121.811 best solution, best possible 12395.162 (3303.10 seconds)
Cbc0010I After 16500 nodes, 6722 on tree, 24121.811 best solution, best possible 12395.162 (3307.16 seconds)
Cbc0010I After 16600 nodes, 6765 on tree, 24121.811 best solution, best possible 12397.564 (3316.84 seconds)
Cbc0010I After 16700 nodes, 6802 on tree, 24121.811 best solution, best possible 12397.564 (3321.76 seconds)
Cbc0010I After 16800 nodes, 6843 on tree, 24121.811 best solution, best possible 12397.564 (3326.23 seconds)
Cbc0010I After 16900 nodes, 6880 on tree, 24121.811 best solution, best possible 12397.564 (3329.93 seconds)
Cbc0010I After 17000 nodes, 6916 on tree, 24121.811 best solution, best possible 12397.564 (3333.56 seconds)
Cbc0010I After 17100 nodes, 6951 on tree, 24121.811 best solution, best possible 12397.564 (3337.15 seconds)
Cbc0010I After 17200 nodes, 6988 on tree, 24121.811 best solution, best possible 12397.564 (3340.91 seconds)
Cbc0010I After 17300 nodes, 7020 on tree, 24121.811 best solution, best possible 12397.564 (3344.58 seconds)
Cbc0010I After 17400 nodes, 7065 on tree, 24121.811 best solution, best possible 12404.913 (3354.34 seconds)
Cbc0010I After 17500 nodes, 7097 on tree, 24121.811 best solution, best possible 12404.913 (3359.20 seconds)
Cbc0010I After 17600 nodes, 7129 on tree, 24121.811 best solution, best possible 12404.913 (3363.46 seconds)
Cbc0010I After 17700 nodes, 7161 on tree, 24121.811 best solution, best possible 12404.913 (3367.07 seconds)
Cbc0010I After 17800 nodes, 7193 on tree, 24121.811 best solution, best possible 12404.913 (3370.27 seconds)
Cbc0010I After 17900 nodes, 7227 on tree, 24121.811 best solution, best possible 12404.913 (3373.71 seconds)
Cbc0010I After 18000 nodes, 7252 on tree, 24121.811 best solution, best possible 12405.601 (3378.86 seconds)
Cbc0010I After 18100 nodes, 7300 on tree, 24121.811 best solution, best possible 12405.601 (3388.27 seconds)
Cbc0010I After 18200 nodes, 7343 on tree, 24121.811 best solution, best possible 12405.601 (3394.21 seconds)
Cbc0010I After 18300 nodes, 7391 on tree, 24121.811 best solution, best possible 12405.601 (3399.56 seconds)
Cbc0010I After 18400 nodes, 7438 on tree, 24121.811 best solution, best possible 12405.601 (3404.39 seconds)
Cbc0010I After 18500 nodes, 7482 on tree, 24121.811 best solution, best possible 12405.601 (3409.96 seconds)
Cbc0010I After 18600 nodes, 7530 on tree, 24121.811 best solution, best possible 12405.601 (3415.30 seconds)
Cbc0010I After 18700 nodes, 7574 on tree, 24121.811 best solution, best possible 12411.049 (3429.92 seconds)
Cbc0010I After 18800 nodes, 7618 on tree, 24121.811 best solution, best possible 12411.049 (3436.14 seconds)
Cbc0010I After 18900 nodes, 7663 on tree, 24121.811 best solution, best possible 12411.049 (3441.00 seconds)
Cbc0010I After 19000 nodes, 7702 on tree, 24121.811 best solution, best possible 12411.049 (3444.89 seconds)
Cbc0010I After 19100 nodes, 7744 on tree, 24121.811 best solution, best possible 12411.049 (3448.68 seconds)
Cbc0010I After 19200 nodes, 7786 on tree, 24121.811 best solution, best possible 12411.049 (3452.78 seconds)
Cbc0010I After 19300 nodes, 7831 on tree, 24121.811 best solution, best possible 12411.049 (3457.42 seconds)
Cbc0020I Exiting on maximum time
Cbc0005I Partial search - best objective 24121.811 (best possible 12411.049), took 1103700 iterations and 19338 nodes (3528.59 seconds)
Cbc0035I Maximum depth 517, 287 variables fixed on reduced cost

 	"Not finished"

Linearization cuts added at root node:       1801
Linearization cuts added in total:           1801  (separation time: 0.026844s)
Total solve time:                         3529.09s (3529.09s in branch-and-bound)
Lower bound:                                12411
Upper bound:                                23141  (gap: 86.45%)
Branch-and-bound nodes:                     19338
Stats: /tmp/jl_b1difR/model.nl 1275 [var]  125 [int] 1625 [con] 1161 [aux]   1801 [root]     1801 [tot] 0.026844 [sep]  3529.09 [time]  3529.09 [bb]         1.241105e+04 [lower]         2.314097e+04 [upper]   19338 [nodes]
Performance of                           FBBT:	    208.655s,    20418 runs. fix:   0.157522 shrnk:    7.56043 ubd:          0 2ubd:          0 infeas:          0
Performance of                           OBBT:	    723.823s,       20 runs. fix:          0 shrnk:          0 ubd:          0 2ubd:          0 infeas:          0
ERROR: LoadError: MathOptInterface.GetAttributeNotAllowed{MathOptInterface.ObjectiveBound}: Getting attribute MathOptInterface.ObjectiveBound() cannot be performed: AmplNLWriter.Optimizer does not support getting the attribute MathOptInterface.ObjectiveBound(). You may want to use a `CachingOptimizer` in `AUTOMATIC` mode or you may need to call `reset_optimizer` before doing this operation if the `CachingOptimizer` is in `MANUAL` mode.
Stacktrace:
  [1] get_fallback(model::AmplNLWriter.Optimizer, attr::MathOptInterface.ObjectiveBound)
    @ MathOptInterface ~/.julia/packages/MathOptInterface/gLl4d/src/attributes.jl:409
  [2] get(::AmplNLWriter.Optimizer, ::MathOptInterface.ObjectiveBound)
    @ MathOptInterface ~/.julia/packages/MathOptInterface/gLl4d/src/attributes.jl:390
  [3] _get_model_attribute(model::MathOptInterface.Utilities.CachingOptimizer{AmplNLWriter.Optimizer, MathOptInterface.Utilities.UniversalFallback{MathOptInterface.Utilities.Model{Float64}}}, attr::MathOptInterface.ObjectiveBound)
    @ MathOptInterface.Utilities ~/.julia/packages/MathOptInterface/gLl4d/src/Utilities/cachingoptimizer.jl:865
  [4] get(model::MathOptInterface.Utilities.CachingOptimizer{AmplNLWriter.Optimizer, MathOptInterface.Utilities.UniversalFallback{MathOptInterface.Utilities.Model{Float64}}}, attr::MathOptInterface.ObjectiveBound)
    @ MathOptInterface.Utilities ~/.julia/packages/MathOptInterface/gLl4d/src/Utilities/cachingoptimizer.jl:900
  [5] get(b::MathOptInterface.Bridges.LazyBridgeOptimizer{MathOptInterface.Utilities.CachingOptimizer{AmplNLWriter.Optimizer, MathOptInterface.Utilities.UniversalFallback{MathOptInterface.Utilities.Model{Float64}}}}, attr::MathOptInterface.ObjectiveBound)
    @ MathOptInterface.Bridges ~/.julia/packages/MathOptInterface/gLl4d/src/Bridges/bridge_optimizer.jl:889
  [6] _get_model_attribute(model::MathOptInterface.Utilities.CachingOptimizer{MathOptInterface.Bridges.LazyBridgeOptimizer{MathOptInterface.Utilities.CachingOptimizer{AmplNLWriter.Optimizer, MathOptInterface.Utilities.UniversalFallback{MathOptInterface.Utilities.Model{Float64}}}}, MathOptInterface.Utilities.UniversalFallback{MathOptInterface.Utilities.Model{Float64}}}, attr::MathOptInterface.ObjectiveBound)
    @ MathOptInterface.Utilities ~/.julia/packages/MathOptInterface/gLl4d/src/Utilities/cachingoptimizer.jl:865
  [7] get(model::MathOptInterface.Utilities.CachingOptimizer{MathOptInterface.Bridges.LazyBridgeOptimizer{MathOptInterface.Utilities.CachingOptimizer{AmplNLWriter.Optimizer, MathOptInterface.Utilities.UniversalFallback{MathOptInterface.Utilities.Model{Float64}}}}, MathOptInterface.Utilities.UniversalFallback{MathOptInterface.Utilities.Model{Float64}}}, attr::MathOptInterface.ObjectiveBound)
    @ MathOptInterface.Utilities ~/.julia/packages/MathOptInterface/gLl4d/src/Utilities/cachingoptimizer.jl:900
  [8] _moi_get_result(model::MathOptInterface.Utilities.CachingOptimizer{MathOptInterface.Bridges.LazyBridgeOptimizer{MathOptInterface.Utilities.CachingOptimizer{AmplNLWriter.Optimizer, MathOptInterface.Utilities.UniversalFallback{MathOptInterface.Utilities.Model{Float64}}}}, MathOptInterface.Utilities.UniversalFallback{MathOptInterface.Utilities.Model{Float64}}}, args::MathOptInterface.ObjectiveBound)
    @ JuMP ~/.julia/packages/JuMP/i68GU/src/optimizer_interface.jl:1053
  [9] get(model::JuMP.Model, attr::MathOptInterface.ObjectiveBound)
    @ JuMP ~/.julia/packages/JuMP/i68GU/src/optimizer_interface.jl:1073
 [10] objective_bound(model::JuMP.Model)
    @ JuMP ~/.julia/packages/JuMP/i68GU/src/objective.jl:78
 [11] nl_mcnd(ptype::String, graph::String, commodities::String, nodes::String, incr::Int64, cost::Symbol, solver::AmplNLWriter.Optimizer, solver_params::Vector{Any}; solve::Bool, write_nl::Bool)
    @ IterativePWLB ~/git/ipwlb/code/sources/IterativePWLB/src/nlsolver.jl:1224
 [12] top-level scope
    @ ~/git/ipwlb/code/sources/IterativePWLB/test/couenne/mcnd_nodes/script.jl:18
in expression starting at /home/ccontard/git/ipwlb/code/sources/IterativePWLB/test/couenne/mcnd_nodes/script.jl:18
